NAME: eil101
TYPE: TOUR
DIMENSION: 101
TOUR_SECTION
37
98
59
92
99
68
80
96
3
77
6
94
21
73
22
74
33
81
100
93
72
85
91
97
95
1
69
79
5
60
84
13
16
61
41
75
25
55
32
90
40
58
53
101
56
83
63
76
87
89
27
30
70
31
88
34
78
48
82
50
2
57
7
8
45
9
51
10
62
12
14
44
86
17
28
47
11
19
26
15
43
18
20
23
24
29
35
71
36
39
42
4
52
54
46
66
49
67
65
38
64
EOF